70
1 0 2
2 0 3
2 1 9
3 0 9
3 1 5
3 2 3
4 0 8
4 1 9
4 2 3
4 3 9
5 0 5
5 1 6
5 2 8
5 3 9
5 4 2
6 0 1
6 1 4
6 2 3
6 3 6
6 4 2
6 5 9
7 0 4
7 1 2
7 2 2
7 3 3
7 4 3
7 5 3
7 6 3
8 0 3
8 1 1
8 2 8
8 3 4
8 4 4
8 5 7
8 6 5
8 7 1
9 0 6
9 1 3
9 2 9
9 3 1
9 4 2
9 5 3
9 6 8
9 7 5
9 8 7
10 0 7
10 1 6
10 2 5
10 3 8
10 4 8
10 5 4
10 6 3
10 7 7
10 8 5
10 9 3
11 0 2
11 1 6
11 2 3
11 3 3
11 4 3
11 5 9
11 6 1
11 7 5
11 8 1
11 9 9
11 10 9
12 0 9
12 1 6
12 2 5
12 3 5
12 4 9
12 5 6
12 6 5
12 7 5
12 8 2
12 9 5
12 10 3
12 11 6
13 0 3
13 1 3
13 2 4
13 3 9
13 4 4
13 5 8
13 6 9
13 7 4
13 8 2
13 9 2
13 10 5
13 11 4
13 12 5
14 0 7
14 1 7
14 2 6
14 3 6
14 4 6
14 5 6
14 6 1
14 7 3
14 8 5
14 9 1
14 10 1
14 11 8
14 12 1
14 13 6
15 0 7
15 1 3
15 2 7
15 3 8
15 4 3
15 5 5
15 6 8
15 7 5
15 8 4
15 9 5
15 10 6
15 11 6
15 12 9
15 13 7
15 14 5
16 0 7
16 1 1
16 2 3
16 3 2
16 4 7
16 5 3
16 6 6
16 7 4
16 8 4
16 9 7
16 10 1
16 11 7
16 12 4
16 13 3
16 14 5
16 15 8
17 0 3
17 1 1
17 2 7
17 3 5
17 4 7
17 5 8
17 6 1
17 7 6
17 8 7
17 9 7
17 10 9
17 11 2
17 12 3
17 13 5
17 14 1
17 15 1
17 16 6
18 0 3
18 1 1
18 2 2
18 3 1
18 4 3
18 5 4
18 6 6
18 7 6
18 8 4
18 9 5
18 10 8
18 11 6
18 12 1
18 13 7
18 14 7
18 15 2
18 16 3
18 17 6
19 0 5
19 1 7
19 2 1
19 3 9
19 4 2
19 5 9
19 6 7
19 7 4
19 8 5
19 9 2
19 10 2
19 11 2
19 12 1
19 13 5
19 14 7
19 15 4
19 16 9
19 17 6
19 18 6
20 0 5
20 1 3
20 2 4
20 3 2
20 4 1
20 5 5
20 6 1
20 7 2
20 8 4
20 9 6
20 10 3
20 11 2
20 12 8
20 13 5
20 14 3
20 15 8
20 16 9
20 17 9
20 18 9
20 19 5
21 0 9
21 1 4
21 2 1
21 3 2
21 4 8
21 5 2
21 6 1
21 7 3
21 8 2
21 9 8
21 10 4
21 11 6
21 12 2
21 13 8
21 14 5
21 15 6
21 16 7
21 17 8
21 18 6
21 19 2
21 20 1
22 0 3
22 1 5
22 2 6
22 3 7
22 4 4
22 5 7
22 6 7
22 7 4
22 8 3
22 9 8
22 10 5
22 11 1
22 12 5
22 13 7
22 14 6
22 15 5
22 16 1
22 17 4
22 18 3
22 19 9
22 20 9
22 21 4
23 0 6
23 1 1
23 2 5
23 3 9
23 4 7
23 5 3
23 6 8
23 7 5
23 8 2
23 9 1
23 10 5
23 11 9
23 12 6
23 13 1
23 14 8
23 15 5
23 16 1
23 17 2
23 18 2
23 19 2
23 20 1
23 21 8
23 22 5
24 0 6
24 1 4
24 2 8
24 3 4
24 4 2
24 5 1
24 6 5
24 7 6
24 8 1
24 9 7
24 10 2
24 11 8
24 12 1
24 13 7
24 14 2
24 15 7
24 16 9
24 17 5
24 18 3
24 19 8
24 20 9
24 21 1
24 22 2
24 23 5
25 0 3
25 1 7
25 2 1
25 3 4
25 4 6
25 5 7
25 6 4
25 7 5
25 8 1
25 9 2
25 10 2
25 11 3
25 12 1
25 13 4
25 14 2
25 15 3
25 16 6
25 17 8
25 18 1
25 19 7
25 20 7
25 21 1
25 22 5
25 23 3
25 24 5
26 0 5
26 1 3
26 2 5
26 3 3
26 4 6
26 5 2
26 6 6
26 7 6
26 8 1
26 9 7
26 10 1
26 11 4
26 12 9
26 13 8
26 14 4
26 15 6
26 16 1
26 17 2
26 18 3
26 19 2
26 20 9
26 21 2
26 22 4
26 23 8
26 24 7
26 25 9
27 0 5
27 1 7
27 2 6
27 3 3
27 4 5
27 5 6
27 6 1
27 7 7
27 8 3
27 9 7
27 10 8
27 11 9
27 12 5
27 13 5
27 14 8
27 15 4
27 16 1
27 17 5
27 18 8
27 19 9
27 20 6
27 21 7
27 22 7
27 23 1
27 24 2
27 25 6
27 26 2
28 0 2
28 1 3
28 2 8
28 3 5
28 4 7
28 5 4
28 6 9
28 7 9
28 8 7
28 9 7
28 10 7
28 11 9
28 12 8
28 13 7
28 14 2
28 15 7
28 16 9
28 17 4
28 18 4
28 19 2
28 20 6
28 21 5
28 22 3
28 23 6
28 24 7
28 25 7
28 26 6
28 27 4
29 0 3
29 1 9
29 2 4
29 3 5
29 4 4
29 5 8
29 6 2
29 7 2
29 8 8
29 9 9
29 10 3
29 11 7
29 12 4
29 13 3
29 14 9
29 15 7
29 16 2
29 17 5
29 18 3
29 19 8
29 20 9
29 21 7
29 22 8
29 23 5
29 24 1
29 25 7
29 26 6
29 27 6
29 28 4
30 0 2
30 1 6
30 2 5
30 3 5
30 4 8
30 5 5
30 6 3
30 7 7
30 8 9
30 9 7
30 10 8
30 11 1
30 12 6
30 13 5
30 14 4
30 15 7
30 16 7
30 17 5
30 18 9
30 19 1
30 20 8
30 21 9
30 22 4
30 23 3
30 24 7
30 25 8
30 26 2
30 27 9
30 28 3
30 29 6
31 0 4
31 1 1
31 2 9
31 3 4
31 4 8
31 5 4
31 6 2
31 7 8
31 8 2
31 9 1
31 10 8
31 11 4
31 12 2
31 13 5
31 14 5
31 15 2
31 16 3
31 17 7
31 18 3
31 19 9
31 20 3
31 21 4
31 22 1
31 23 4
31 24 7
31 25 3
31 26 3
31 27 4
31 28 7
31 29 5
31 30 9
32 0 7
32 1 3
32 2 3
32 3 7
32 4 5
32 5 9
32 6 7
32 7 8
32 8 9
32 9 7
32 10 6
32 11 3
32 12 4
32 13 7
32 14 7
32 15 1
32 16 6
32 17 3
32 18 6
32 19 2
32 20 4
32 21 2
32 22 5
32 23 7
32 24 8
32 25 5
32 26 1
32 27 4
32 28 6
32 29 6
32 30 4
32 31 2
33 0 5
33 1 5
33 2 1
33 3 2
33 4 8
33 5 1
33 6 9
33 7 1
33 8 8
33 9 6
33 10 9
33 11 7
33 12 6
33 13 7
33 14 9
33 15 8
33 16 5
33 17 8
33 18 4
33 19 5
33 20 5
33 21 6
33 22 8
33 23 4
33 24 9
33 25 8
33 26 1
33 27 1
33 28 5
33 29 2
33 30 2
33 31 7
33 32 6
34 0 3
34 1 6
34 2 5
34 3 7
34 4 6
34 5 7
34 6 5
34 7 2
34 8 4
34 9 4
34 10 3
34 11 1
34 12 9
34 13 8
34 14 4
34 15 2
34 16 9
34 17 1
34 18 8
34 19 4
34 20 6
34 21 7
34 22 7
34 23 7
34 24 4
34 25 3
34 26 3
34 27 8
34 28 4
34 29 6
34 30 9
34 31 4
34 32 2
34 33 7
35 0 3
35 1 7
35 2 6
35 3 1
35 4 7
35 5 2
35 6 2
35 7 5
35 8 2
35 9 5
35 10 4
35 11 8
35 12 5
35 13 5
35 14 9
35 15 7
35 16 3
35 17 4
35 18 4
35 19 8
35 20 1
35 21 7
35 22 4
35 23 5
35 24 2
35 25 4
35 26 8
35 27 2
35 28 8
35 29 5
35 30 6
35 31 8
35 32 7
35 33 1
35 34 2
36 0 9
36 1 5
36 2 2
36 3 1
36 4 5
36 5 8
36 6 4
36 7 9
36 8 4
36 9 7
36 10 6
36 11 4
36 12 8
36 13 6
36 14 8
36 15 9
36 16 8
36 17 5
36 18 8
36 19 4
36 20 3
36 21 5
36 22 2
36 23 1
36 24 3
36 25 2
36 26 9
36 27 3
36 28 7
36 29 3
36 30 4
36 31 7
36 32 4
36 33 5
36 34 8
36 35 5
37 0 5
37 1 4
37 2 7
37 3 2
37 4 5
37 5 6
37 6 6
37 7 4
37 8 7
37 9 8
37 10 4
37 11 4
37 12 4
37 13 9
37 14 1
37 15 3
37 16 7
37 17 8
37 18 3
37 19 6
37 20 8
37 21 4
37 22 8
37 23 5
37 24 1
37 25 7
37 26 1
37 27 6
37 28 5
37 29 5
37 30 1
37 31 6
37 32 1
37 33 5
37 34 1
37 35 3
37 36 9
38 0 3
38 1 1
38 2 5
38 3 7
38 4 3
38 5 6
38 6 3
38 7 1
38 8 9
38 9 6
38 10 3
38 11 1
38 12 3
38 13 7
38 14 7
38 15 8
38 16 8
38 17 4
38 18 7
38 19 5
38 20 7
38 21 9
38 22 3
38 23 1
38 24 6
38 25 7
38 26 9
38 27 7
38 28 1
38 29 3
38 30 2
38 31 2
38 32 4
38 33 3
38 34 9
38 35 6
38 36 5
38 37 8
39 0 2
39 1 4
39 2 4
39 3 4
39 4 3
39 5 5
39 6 7
39 7 4
39 8 7
39 9 1
39 10 7
39 11 7
39 12 7
39 13 1
39 14 5
39 15 9
39 16 1
39 17 7
39 18 2
39 19 6
39 20 1
39 21 3
39 22 1
39 23 9
39 24 9
39 25 7
39 26 5
39 27 7
39 28 4
39 29 4
39 30 1
39 31 4
39 32 9
39 33 1
39 34 5
39 35 6
39 36 7
39 37 1
39 38 2
40 0 1
40 1 3
40 2 6
40 3 3
40 4 8
40 5 2
40 6 1
40 7 7
40 8 6
40 9 9
40 10 7
40 11 7
40 12 6
40 13 2
40 14 7
40 15 9
40 16 5
40 17 7
40 18 1
40 19 3
40 20 7
40 21 7
40 22 4
40 23 5
40 24 3
40 25 3
40 26 2
40 27 1
40 28 2
40 29 7
40 30 8
40 31 2
40 32 9
40 33 9
40 34 2
40 35 1
40 36 8
40 37 3
40 38 7
40 39 2
41 0 4
41 1 8
41 2 9
41 3 5
41 4 1
41 5 3
41 6 8
41 7 1
41 8 5
41 9 2
41 10 5
41 11 9
41 12 1
41 13 2
41 14 5
41 15 5
41 16 1
41 17 9
41 18 6
41 19 8
41 20 6
41 21 2
41 22 6
41 23 5
41 24 2
41 25 6
41 26 1
41 27 4
41 28 1
41 29 5
41 30 2
41 31 6
41 32 9
41 33 1
41 34 6
41 35 2
41 36 2
41 37 6
41 38 2
41 39 6
41 40 8
42 0 8
42 1 8
42 2 8
42 3 6
42 4 8
42 5 1
42 6 3
42 7 7
42 8 3
42 9 3
42 10 7
42 11 2
42 12 7
42 13 6
42 14 3
42 15 1
42 16 7
42 17 5
42 18 8
42 19 8
42 20 6
42 21 8
42 22 1
42 23 8
42 24 5
42 25 4
42 26 5
42 27 7
42 28 2
42 29 5
42 30 9
42 31 1
42 32 7
42 33 7
42 34 7
42 35 5
42 36 3
42 37 7
42 38 1
42 39 9
42 40 5
42 41 9
43 0 8
43 1 6
43 2 9
43 3 1
43 4 2
43 5 7
43 6 8
43 7 2
43 8 6
43 9 9
43 10 9
43 11 5
43 12 3
43 13 5
43 14 5
43 15 4
43 16 7
43 17 1
43 18 9
43 19 9
43 20 8
43 21 8
43 22 5
43 23 2
43 24 2
43 25 4
43 26 5
43 27 5
43 28 3
43 29 6
43 30 5
43 31 8
43 32 9
43 33 2
43 34 4
43 35 3
43 36 6
43 37 1
43 38 1
43 39 2
43 40 1
43 41 4
43 42 6
44 0 8
44 1 9
44 2 1
44 3 8
44 4 5
44 5 2
44 6 7
44 7 6
44 8 9
44 9 2
44 10 4
44 11 3
44 12 6
44 13 7
44 14 4
44 15 9
44 16 5
44 17 3
44 18 7
44 19 6
44 20 2
44 21 9
44 22 5
44 23 7
44 24 1
44 25 2
44 26 7
44 27 2
44 28 1
44 29 7
44 30 7
44 31 9
44 32 2
44 33 3
44 34 8
44 35 2
44 36 3
44 37 9
44 38 8
44 39 5
44 40 4
44 41 8
44 42 8
44 43 3
45 0 8
45 1 1
45 2 7
45 3 2
45 4 8
45 5 8
45 6 5
45 7 5
45 8 6
45 9 3
45 10 4
45 11 4
45 12 6
45 13 6
45 14 1
45 15 5
45 16 6
45 17 1
45 18 6
45 19 4
45 20 1
45 21 6
45 22 8
45 23 6
45 24 6
45 25 6
45 26 5
45 27 5
45 28 5
45 29 9
45 30 5
45 31 2
45 32 9
45 33 5
45 34 2
45 35 9
45 36 5
45 37 7
45 38 4
45 39 4
45 40 2
45 41 1
45 42 9
45 43 5
45 44 3
46 0 3
46 1 8
46 2 8
46 3 8
46 4 1
46 5 9
46 6 9
46 7 9
46 8 3
46 9 7
46 10 2
46 11 9
46 12 1
46 13 9
46 14 1
46 15 3
46 16 3
46 17 6
46 18 7
46 19 8
46 20 2
46 21 3
46 22 3
46 23 7
46 24 4
46 25 6
46 26 5
46 27 3
46 28 8
46 29 2
46 30 1
46 31 3
46 32 3
46 33 2
46 34 2
46 35 6
46 36 9
46 37 6
46 38 6
46 39 3
46 40 5
46 41 4
46 42 9
46 43 1
46 44 2
46 45 7
47 0 7
47 1 3
47 2 4
47 3 5
47 4 8
47 5 9
47 6 5
47 7 6
47 8 8
47 9 1
47 10 2
47 11 3
47 12 5
47 13 7
47 14 9
47 15 1
47 16 5
47 17 3
47 18 9
47 19 9
47 20 9
47 21 2
47 22 3
47 23 4
47 24 9
47 25 7
47 26 6
47 27 1
47 28 7
47 29 7
47 30 6
47 31 9
47 32 8
47 33 6
47 34 1
47 35 9
47 36 2
47 37 3
47 38 8
47 39 7
47 40 6
47 41 2
47 42 5
47 43 3
47 44 8
47 45 4
47 46 8
48 0 6
48 1 7
48 2 4
48 3 3
48 4 7
48 5 6
48 6 4
48 7 9
48 8 2
48 9 2
48 10 3
48 11 2
48 12 4
48 13 3
48 14 3
48 15 3
48 16 8
48 17 4
48 18 5
48 19 8
48 20 8
48 21 4
48 22 9
48 23 7
48 24 1
48 25 7
48 26 8
48 27 9
48 28 3
48 29 2
48 30 2
48 31 4
48 32 7
48 33 1
48 34 9
48 35 4
48 36 6
48 37 9
48 38 9
48 39 8
48 40 4
48 41 9
48 42 7
48 43 1
48 44 9
48 45 6
48 46 5
48 47 8
49 0 2
49 1 8
49 2 6
49 3 7
49 4 2
49 5 8
49 6 5
49 7 9
49 8 7
49 9 7
49 10 8
49 11 7
49 12 4
49 13 7
49 14 9
49 15 3
49 16 6
49 17 3
49 18 6
49 19 9
49 20 6
49 21 4
49 22 4
49 23 1
49 24 1
49 25 5
49 26 1
49 27 3
49 28 4
49 29 9
49 30 7
49 31 4
49 32 4
49 33 3
49 34 9
49 35 3
49 36 2
49 37 6
49 38 5
49 39 8
49 40 3
49 41 3
49 42 9
49 43 1
49 44 4
49 45 8
49 46 7
49 47 8
49 48 5
50 0 1
50 1 1
50 2 3
50 3 8
50 4 3
50 5 7
50 6 3
50 7 2
50 8 1
50 9 9
50 10 7
50 11 4
50 12 3
50 13 4
50 14 8
50 15 7
50 16 2
50 17 2
50 18 1
50 19 6
50 20 4
50 21 8
50 22 5
50 23 2
50 24 7
50 25 6
50 26 7
50 27 2
50 28 3
50 29 1
50 30 9
50 31 9
50 32 4
50 33 3
50 34 3
50 35 2
50 36 9
50 37 6
50 38 5
50 39 7
50 40 2
50 41 9
50 42 2
50 43 4
50 44 6
50 45 6
50 46 9
50 47 5
50 48 3
50 49 3
51 0 5
51 1 5
51 2 4
51 3 1
51 4 4
51 5 1
51 6 8
51 7 1
51 8 1
51 9 2
51 10 5
51 11 3
51 12 6
51 13 7
51 14 3
51 15 7
51 16 3
51 17 2
51 18 4
51 19 2
51 20 1
51 21 6
51 22 8
51 23 3
51 24 2
51 25 6
51 26 8
51 27 4
51 28 9
51 29 8
51 30 7
51 31 1
51 32 5
51 33 2
51 34 1
51 35 8
51 36 7
51 37 8
51 38 6
51 39 1
51 40 8
51 41 1
51 42 6
51 43 4
51 44 5
51 45 4
51 46 7
51 47 3
51 48 9
51 49 4
51 50 1
52 0 6
52 1 2
52 2 5
52 3 5
52 4 5
52 5 1
52 6 1
52 7 3
52 8 7
52 9 7
52 10 8
52 11 5
52 12 2
52 13 5
52 14 8
52 15 3
52 16 5
52 17 6
52 18 1
52 19 3
52 20 2
52 21 7
52 22 4
52 23 8
52 24 8
52 25 1
52 26 3
52 27 2
52 28 9
52 29 3
52 30 7
52 31 8
52 32 6
52 33 5
52 34 6
52 35 1
52 36 1
52 37 7
52 38 1
52 39 2
52 40 7
52 41 4
52 42 8
52 43 8
52 44 8
52 45 6
52 46 3
52 47 9
52 48 2
52 49 1
52 50 8
52 51 5
53 0 9
53 1 1
53 2 9
53 3 8
53 4 5
53 5 4
53 6 3
53 7 3
53 8 9
53 9 2
53 10 5
53 11 3
53 12 9
53 13 4
53 14 3
53 15 7
53 16 4
53 17 7
53 18 6
53 19 9
53 20 3
53 21 4
53 22 2
53 23 8
53 24 9
53 25 1
53 26 6
53 27 5
53 28 5
53 29 5
53 30 1
53 31 5
53 32 8
53 33 7
53 34 3
53 35 5
53 36 6
53 37 2
53 38 8
53 39 9
53 40 7
53 41 2
53 42 7
53 43 3
53 44 4
53 45 1
53 46 7
53 47 2
53 48 5
53 49 7
53 50 1
53 51 7
53 52 3
54 0 7
54 1 5
54 2 3
54 3 9
54 4 5
54 5 5
54 6 9
54 7 8
54 8 2
54 9 9
54 10 7
54 11 9
54 12 7
54 13 1
54 14 8
54 15 6
54 16 2
54 17 7
54 18 1
54 19 5
54 20 1
54 21 5
54 22 5
54 23 8
54 24 7
54 25 2
54 26 9
54 27 4
54 28 1
54 29 1
54 30 8
54 31 9
54 32 9
54 33 1
54 34 1
54 35 7
54 36 7
54 37 6
54 38 5
54 39 5
54 40 6
54 41 9
54 42 5
54 43 1
54 44 2
54 45 5
54 46 9
54 47 1
54 48 9
54 49 5
54 50 6
54 51 4
54 52 3
54 53 3
55 0 3
55 1 8
55 2 3
55 3 5
55 4 7
55 5 4
55 6 1
55 7 3
55 8 8
55 9 4
55 10 3
55 11 1
55 12 4
55 13 5
55 14 6
55 15 9
55 16 8
55 17 6
55 18 9
55 19 2
55 20 7
55 21 6
55 22 8
55 23 3
55 24 6
55 25 8
55 26 9
55 27 4
55 28 9
55 29 4
55 30 3
55 31 5
55 32 5
55 33 9
55 34 7
55 35 6
55 36 3
55 37 7
55 38 4
55 39 8
55 40 4
55 41 2
55 42 3
55 43 3
55 44 4
55 45 7
55 46 2
55 47 5
55 48 1
55 49 3
55 50 4
55 51 6
55 52 2
55 53 3
55 54 7
56 0 9
56 1 8
56 2 2
56 3 9
56 4 4
56 5 9
56 6 2
56 7 8
56 8 8
56 9 6
56 10 1
56 11 2
56 12 9
56 13 1
56 14 5
56 15 6
56 16 4
56 17 4
56 18 2
56 19 8
56 20 3
56 21 1
56 22 9
56 23 9
56 24 4
56 25 1
56 26 7
56 27 6
56 28 6
56 29 1
56 30 4
56 31 1
56 32 3
56 33 1
56 34 8
56 35 7
56 36 9
56 37 4
56 38 8
56 39 9
56 40 7
56 41 2
56 42 1
56 43 8
56 44 3
56 45 4
56 46 7
56 47 3
56 48 1
56 49 4
56 50 5
56 51 4
56 52 1
56 53 6
56 54 8
56 55 8
57 0 5
57 1 1
57 2 4
57 3 9
57 4 1
57 5 1
57 6 4
57 7 4
57 8 7
57 9 5
57 10 9
57 11 1
57 12 1
57 13 3
57 14 4
57 15 4
57 16 4
57 17 1
57 18 1
57 19 4
57 20 2
57 21 3
57 22 1
57 23 8
57 24 2
57 25 1
57 26 8
57 27 1
57 28 9
57 29 6
57 30 8
57 31 9
57 32 6
57 33 2
57 34 6
57 35 4
57 36 4
57 37 4
57 38 8
57 39 2
57 40 7
57 41 9
57 42 4
57 43 5
57 44 1
57 45 5
57 46 8
57 47 2
57 48 1
57 49 6
57 50 6
57 51 4
57 52 4
57 53 3
57 54 8
57 55 5
57 56 4
58 0 5
58 1 6
58 2 5
58 3 9
58 4 7
58 5 5
58 6 2
58 7 9
58 8 2
58 9 3
58 10 2
58 11 3
58 12 3
58 13 7
58 14 8
58 15 8
58 16 6
58 17 7
58 18 5
58 19 7
58 20 1
58 21 6
58 22 7
58 23 3
58 24 7
58 25 7
58 26 1
58 27 9
58 28 4
58 29 9
58 30 2
58 31 5
58 32 9
58 33 4
58 34 9
58 35 9
58 36 8
58 37 2
58 38 1
58 39 7
58 40 1
58 41 4
58 42 8
58 43 6
58 44 6
58 45 5
58 46 9
58 47 1
58 48 1
58 49 8
58 50 1
58 51 9
58 52 5
58 53 5
58 54 5
58 55 6
58 56 6
58 57 4
59 0 1
59 1 1
59 2 2
59 3 8
59 4 3
59 5 3
59 6 8
59 7 8
59 8 9
59 9 3
59 10 6
59 11 6
59 12 5
59 13 5
59 14 9
59 15 6
59 16 5
59 17 4
59 18 7
59 19 1
59 20 5
59 21 1
59 22 3
59 23 1
59 24 8
59 25 6
59 26 1
59 27 3
59 28 5
59 29 6
59 30 3
59 31 8
59 32 4
59 33 9
59 34 4
59 35 1
59 36 7
59 37 5
59 38 3
59 39 4
59 40 3
59 41 9
59 42 2
59 43 4
59 44 6
59 45 1
59 46 9
59 47 9
59 48 8
59 49 6
59 50 5
59 51 7
59 52 4
59 53 5
59 54 1
59 55 2
59 56 9
59 57 7
59 58 9
60 0 8
60 1 3
60 2 4
60 3 6
60 4 5
60 5 8
60 6 1
60 7 1
60 8 6
60 9 9
60 10 7
60 11 5
60 12 9
60 13 9
60 14 4
60 15 5
60 16 4
60 17 1
60 18 7
60 19 5
60 20 9
60 21 3
60 22 4
60 23 5
60 24 8
60 25 9
60 26 9
60 27 9
60 28 9
60 29 1
60 30 2
60 31 4
60 32 1
60 33 8
60 34 5
60 35 8
60 36 3
60 37 8
60 38 4
60 39 3
60 40 7
60 41 4
60 42 3
60 43 6
60 44 6
60 45 2
60 46 5
60 47 3
60 48 9
60 49 3
60 50 2
60 51 5
60 52 7
60 53 4
60 54 5
60 55 3
60 56 9
60 57 2
60 58 6
60 59 7
61 0 4
61 1 7
61 2 7
61 3 4
61 4 5
61 5 4
61 6 6
61 7 4
61 8 4
61 9 4
61 10 2
61 11 1
61 12 5
61 13 1
61 14 2
61 15 2
61 16 6
61 17 9
61 18 3
61 19 2
61 20 9
61 21 9
61 22 9
61 23 1
61 24 5
61 25 5
61 26 6
61 27 8
61 28 6
61 29 5
61 30 2
61 31 6
61 32 5
61 33 2
61 34 8
61 35 1
61 36 7
61 37 7
61 38 2
61 39 6
61 40 5
61 41 4
61 42 8
61 43 5
61 44 1
61 45 9
61 46 1
61 47 3
61 48 8
61 49 5
61 50 2
61 51 7
61 52 2
61 53 7
61 54 8
61 55 6
61 56 8
61 57 8
61 58 8
61 59 2
61 60 4
62 0 5
62 1 9
62 2 4
62 3 2
62 4 5
62 5 6
62 6 2
62 7 6
62 8 5
62 9 1
62 10 6
62 11 1
62 12 8
62 13 8
62 14 5
62 15 6
62 16 9
62 17 9
62 18 2
62 19 4
62 20 6
62 21 3
62 22 6
62 23 5
62 24 3
62 25 4
62 26 5
62 27 1
62 28 8
62 29 2
62 30 4
62 31 6
62 32 1
62 33 9
62 34 8
62 35 2
62 36 1
62 37 6
62 38 9
62 39 9
62 40 6
62 41 8
62 42 6
62 43 1
62 44 4
62 45 9
62 46 7
62 47 8
62 48 8
62 49 2
62 50 6
62 51 8
62 52 9
62 53 4
62 54 3
62 55 1
62 56 6
62 57 3
62 58 4
62 59 1
62 60 4
62 61 7
63 0 4
63 1 5
63 2 3
63 3 9
63 4 8
63 5 9
63 6 7
63 7 1
63 8 2
63 9 7
63 10 9
63 11 9
63 12 2
63 13 9
63 14 7
63 15 4
63 16 5
63 17 6
63 18 5
63 19 6
63 20 4
63 21 9
63 22 5
63 23 4
63 24 8
63 25 8
63 26 9
63 27 6
63 28 6
63 29 2
63 30 8
63 31 3
63 32 3
63 33 5
63 34 9
63 35 5
63 36 4
63 37 6
63 38 5
63 39 3
63 40 5
63 41 5
63 42 9
63 43 5
63 44 1
63 45 4
63 46 1
63 47 7
63 48 5
63 49 7
63 50 3
63 51 3
63 52 1
63 53 4
63 54 3
63 55 6
63 56 3
63 57 5
63 58 6
63 59 5
63 60 4
63 61 7
63 62 9
64 0 7
64 1 6
64 2 3
64 3 4
64 4 1
64 5 4
64 6 9
64 7 1
64 8 9
64 9 3
64 10 2
64 11 4
64 12 2
64 13 8
64 14 6
64 15 2
64 16 8
64 17 3
64 18 2
64 19 5
64 20 9
64 21 8
64 22 9
64 23 4
64 24 6
64 25 8
64 26 7
64 27 8
64 28 4
64 29 8
64 30 7
64 31 7
64 32 4
64 33 6
64 34 4
64 35 1
64 36 1
64 37 6
64 38 8
64 39 9
64 40 9
64 41 8
64 42 6
64 43 4
64 44 4
64 45 3
64 46 7
64 47 3
64 48 7
64 49 2
64 50 9
64 51 5
64 52 7
64 53 3
64 54 4
64 55 5
64 56 1
64 57 6
64 58 5
64 59 9
64 60 3
64 61 5
64 62 9
64 63 3
65 0 3
65 1 2
65 2 3
65 3 9
65 4 2
65 5 5
65 6 1
65 7 6
65 8 4
65 9 1
65 10 9
65 11 7
65 12 7
65 13 8
65 14 2
65 15 4
65 16 3
65 17 4
65 18 5
65 19 7
65 20 6
65 21 6
65 22 3
65 23 2
65 24 7
65 25 7
65 26 6
65 27 8
65 28 6
65 29 5
65 30 6
65 31 3
65 32 7
65 33 8
65 34 9
65 35 9
65 36 5
65 37 2
65 38 2
65 39 8
65 40 9
65 41 3
65 42 2
65 43 6
65 44 4
65 45 6
65 46 3
65 47 4
65 48 4
65 49 8
65 50 5
65 51 3
65 52 4
65 53 4
65 54 6
65 55 7
65 56 2
65 57 7
65 58 3
65 59 3
65 60 2
65 61 7
65 62 4
65 63 7
65 64 9
66 0 1
66 1 4
66 2 9
66 3 5
66 4 5
66 5 1
66 6 1
66 7 6
66 8 7
66 9 3
66 10 1
66 11 7
66 12 7
66 13 3
66 14 6
66 15 2
66 16 9
66 17 6
66 18 3
66 19 5
66 20 3
66 21 4
66 22 8
66 23 8
66 24 3
66 25 1
66 26 5
66 27 8
66 28 9
66 29 3
66 30 1
66 31 9
66 32 1
66 33 9
66 34 4
66 35 7
66 36 5
66 37 9
66 38 4
66 39 8
66 40 4
66 41 3
66 42 7
66 43 9
66 44 5
66 45 2
66 46 4
66 47 9
66 48 7
66 49 8
66 50 3
66 51 2
66 52 2
66 53 9
66 54 7
66 55 9
66 56 4
66 57 6
66 58 6
66 59 5
66 60 7
66 61 5
66 62 4
66 63 3
66 64 8
66 65 8
67 0 7
67 1 7
67 2 7
67 3 6
67 4 9
67 5 1
67 6 3
67 7 5
67 8 3
67 9 9
67 10 9
67 11 7
67 12 2
67 13 1
67 14 5
67 15 9
67 16 5
67 17 8
67 18 2
67 19 2
67 20 3
67 21 4
67 22 7
67 23 1
67 24 6
67 25 3
67 26 2
67 27 6
67 28 6
67 29 3
67 30 1
67 31 2
67 32 9
67 33 4
67 34 1
67 35 9
67 36 9
67 37 1
67 38 9
67 39 1
67 40 7
67 41 9
67 42 4
67 43 3
67 44 4
67 45 5
67 46 8
67 47 6
67 48 8
67 49 8
67 50 3
67 51 2
67 52 2
67 53 5
67 54 2
67 55 4
67 56 3
67 57 2
67 58 1
67 59 2
67 60 1
67 61 9
67 62 8
67 63 6
67 64 3
67 65 9
67 66 5
68 0 8
68 1 5
68 2 4
68 3 6
68 4 9
68 5 9
68 6 4
68 7 5
68 8 8
68 9 1
68 10 4
68 11 6
68 12 2
68 13 3
68 14 5
68 15 2
68 16 4
68 17 7
68 18 3
68 19 9
68 20 7
68 21 5
68 22 8
68 23 8
68 24 5
68 25 9
68 26 4
68 27 4
68 28 3
68 29 8
68 30 1
68 31 9
68 32 4
68 33 1
68 34 7
68 35 9
68 36 1
68 37 1
68 38 6
68 39 8
68 40 6
68 41 3
68 42 6
68 43 9
68 44 7
68 45 3
68 46 5
68 47 7
68 48 4
68 49 9
68 50 9
68 51 7
68 52 1
68 53 3
68 54 8
68 55 1
68 56 1
68 57 5
68 58 5
68 59 8
68 60 9
68 61 9
68 62 5
68 63 7
68 64 8
68 65 2
68 66 3
68 67 2
69 0 9
69 1 4
69 2 2
69 3 6
69 4 3
69 5 7
69 6 2
69 7 6
69 8 9
69 9 4
69 10 8
69 11 3
69 12 8
69 13 4
69 14 9
69 15 1
69 16 1
69 17 6
69 18 4
69 19 7
69 20 1
69 21 7
69 22 9
69 23 1
69 24 8
69 25 5
69 26 2
69 27 7
69 28 6
69 29 8
69 30 5
69 31 7
69 32 3
69 33 9
69 34 7
69 35 6
69 36 8
69 37 3
69 38 3
69 39 8
69 40 1
69 41 5
69 42 4
69 43 7
69 44 4
69 45 9
69 46 2
69 47 5
69 48 3
69 49 7
69 50 2
69 51 1
69 52 3
69 53 7
69 54 8
69 55 4
69 56 7
69 57 7
69 58 9
69 59 8
69 60 5
69 61 1
69 62 9
69 63 3
69 64 2
69 65 4
69 66 1
69 67 6
69 68 3
